Data path: /scratch/opt/lxu/CFLG/benchmarks/tree_B
Instance: treeB.400.60
Result path: /scratch/opt/lxu/CFLG/results/tree_B
Solver: Gurobi
Time limit: 7200
Formulation: LEFPAV
Cover: Small
julia --project=. src/main.jl /scratch/opt/lxu/CFLG/benchmarks/tree_B treeB.400.60 /scratch/opt/lxu/CFLG/results/tree_B Gurobi 7200 LEFPAV Small
The latest version of Julia in the `release` channel is 1.11.5+0.x64.linux.gnu. You currently have `1.11.4+0.x64.linux.gnu` installed. Run:

  juliaup update

in your terminal shell to install Julia 1.11.5+0.x64.linux.gnu and update the `release` channel to that version.
/scratch/opt/lxu/CFLG/benchmarks/tree_B Gurobi 7200.0 /scratch/opt/lxu/CFLG/results/tree_B treeB.400.60 LEFPAV Small
/scratch/opt/lxu/CFLG/benchmarks/tree_B/treeB.400.60

 read graph
data loaded


after absorb:281 400

max_piece:24
problem_graph/original graph: node: 281/400 edge: 340/459 dlt: 0.37302424648433047 break_avg_len: 2.014330931015385 break_max_len: 8.477394215962132Vbar/V, Ebar/E(125, 281, 184, 340)
Set parameter TokenServer to value "solice01.zib.de"
Set parameter Threads to value 1
Set parameter OutputFlag to value 1
Gurobi Optimizer version 12.0.1 build v12.0.1rc0 (linux64 - "Debian GNU/Linux 12 (bookworm)")

CPU model: Intel(R) Xeon(R) Gold 5222 CPU @ 3.80GHz, instruction set [SSE2|AVX|AVX2|AVX512]
Thread count: 8 physical cores, 16 logical processors, using up to 1 threads

Non-default parameters:
Threads  1

Optimize a model with 455 rows, 771 columns and 1285 nonzeros
Model fingerprint: 0x8f6d8ebb
Coefficient statistics:
  Matrix range     [1e+00, 1e+00]
  Objective range  [1e+00, 1e+00]
  Bounds range     [1e+00, 1e+00]
  RHS range        [1e+00, 1e+00]
Presolve removed 455 rows and 771 columns
Presolve time: 0.00s
Presolve: All rows and columns removed
Iteration    Objective       Primal Inf.    Dual Inf.      Time
       0    7.3000000e+01   0.000000e+00   0.000000e+00      0s

Solved in 0 iterations and 0.00 seconds (0.00 work units)
Optimal objective  7.300000000e+01

User-callback calls 35, time in user-callback 0.00 sec
elapsed CPU time: 1.049208 seconds
Set parameter TokenServer to value "solice01.zib.de"
Set parameter Threads to value 1
Set parameter OutputFlag to value 1
Set parameter MIPGap to value 0.0001
Set parameter MIPGapAbs to value 0.999998
Set parameter TimeLimit to value 7198.950792

 more cuts: false 0.37302424648433047 false
is_attach:trueformulation:LEFPAV0 257 0
Set parameter PreCrush to value 1

 model loaded

Gurobi Optimizer version 12.0.1 build v12.0.1rc0 (linux64 - "Debian GNU/Linux 12 (bookworm)")

CPU model: Intel(R) Xeon(R) Gold 5222 CPU @ 3.80GHz, instruction set [SSE2|AVX|AVX2|AVX512]
Thread count: 8 physical cores, 16 logical processors, using up to 1 threads

Non-default parameters:
TimeLimit  7198.950792
MIPGapAbs  0.999998
PreCrush  1
Threads  1

Optimize a model with 3031 rows, 2316 columns and 7363 nonzeros
Model fingerprint: 0xe4640a32
Variable types: 712 continuous, 1604 integer (1604 binary)
Coefficient statistics:
  Matrix range     [4e-03, 9e+00]
  Objective range  [1e+00, 1e+00]
  Bounds range     [4e-03, 8e+00]
  RHS range        [1e-06, 9e+00]
Presolve removed 3031 rows and 2316 columns
Presolve time: 0.00s
Presolve: All rows and columns removed

Explored 0 nodes (0 simplex iterations) in 0.00 seconds (0.00 work units)
Thread count was 1 (of 16 available processors)

Solution count 1: 567 

Optimal solution found (tolerance 1.00e-04)
Warning: max constraint violation (1.0000e-06) exceeds tolerance
Best objective 5.670000000000e+02, best bound 5.670000000000e+02, gap 0.0000%

User-callback calls 530, time in user-callback 0.62 sec

 sepatime0 531 0
567.0Stat(MathOptInterface.OPTIMAL, 567.0, 567.0, 0.0, 0.0, 1.049208, 0.0041391849517822266, 0, Main.CFLG.LEFPAV, "", #undef)
